5 5 2 10
1 8 2 5 11 
0.76 3.97 2.42 2.32 2.12 
0.05 0.24 1.4 2.74 2.2 
2 2 2 2 2 
3.93 0.83 0.65 3.97 1.83 
2.08 1.95 2.77 0.23 3.72 
1 1 1 1 1 
1 1 1 1 1 
1 1 1 1 1 
1 1 1 1 1 
1 1 1 1 1 
0.01 0.01 0.01 0.01 0.01 
0.02 0.02 0.02 0.02 0.02 
0.03 0.03 0.03 0.03 0.03 
0.51 0.51 0.51 0.51 0.51 
1.01 1.01 1.01 1.01 1.01 
